h=8;
w=8;
left=[8, 0, 16, 0, 0, 0, 14, 10];
right=[23, 14, 18, 0, 9, 0, 0, 26];
top=[0, 0, 23, 13, 0, 15, 14, 23];
down=[23, 0, 0, 24, 21, 20, 19, 13];
b=[|0,0,0,0,0,0,0,2|0,3,0,4,0,0,0,0|0,0,0,8,0,0,2,0|0,0,6,1,0,0,3,0|0,6,0,7,0,0,0,0|3,0,0,0,0,0,0,0|0,4,0,0,0,0,0,0|2,8,0,0,6,0,0,0|]